(set-logic QF_S)
(declare-fun var0 () String)
(declare-fun var1 () String)
(declare-fun var2 () String)
(declare-fun var3 () String)
(declare-fun var4 () String)
(declare-fun var5 () String)
(declare-fun var6 () String)
(declare-fun var7 () String)
(declare-fun var8 () String)
(declare-fun var9 () String)
(declare-fun var10 () String)
(declare-fun var11 () String)
(declare-fun var12 () String)
(declare-fun var13 () String)
(declare-fun var14 () String)
(declare-fun var15 () String)
(declare-fun var16 () String)
(declare-fun var17 () String)
(declare-fun var18 () String)
(declare-fun var19 () String)
(declare-fun var20 () String)
(declare-fun var21 () String)
(declare-fun var22 () String)
(declare-fun var23 () String)
(declare-fun var24 () String)
(declare-fun var25 () String)
(declare-fun var26 () String)
(declare-fun var27 () String)
(declare-fun var28 () String)
(declare-fun var29 () String)
(declare-fun var30 () String)
(declare-fun var31 () String)
(declare-fun var32 () String)
(declare-fun var33 () String)
(declare-fun var34 () String)
(declare-fun var35 () String)
(declare-fun var36 () String)
(declare-fun var37 () String)
(declare-fun var38 () String)
(declare-fun var39 () String)
(declare-fun var40 () String)
(declare-fun var41 () String)
(declare-fun var42 () String)
(declare-fun var43 () String)
(declare-fun var44 () String)
(declare-fun var45 () String)
(declare-fun var46 () String)
(declare-fun var47 () String)
(declare-fun var48 () String)
(declare-fun var49 () String)
(declare-fun var50 () String)
(declare-fun var51 () String)
(declare-fun var52 () String)
(declare-fun var53 () String)
(declare-fun var54 () String)
(declare-fun var55 () String)
(declare-fun var56 () String)
(declare-fun var57 () String)
(declare-fun var58 () String)
(declare-fun var59 () String)
(declare-fun var60 () String)
(assert (= var0 (str.++ var1 var2)))
(assert (= var2 (str.++ var3 var4)))
(assert (= var4 (str.++ var5 var6)))
(assert (= var6 (str.++ var7 var8)))
(assert (= var8 (str.++ var9 var10)))
(assert (= var10 (str.++ var11 var12)))
(assert (= var12 (str.++ var13 var14)))
(assert (= var14 (str.++ var15 var16)))
(assert (= var16 (str.++ var17 var18)))
(assert (= var18 (str.++ var19 var20)))
(assert (= var20 (str.++ var21 var22)))
(assert (= var22 (str.++ var23 var24)))
(assert (= var24 (str.++ var25 var26)))
(assert (= var26 (str.++ var27 var28)))
(assert (= var28 (str.++ var29 var30)))
(assert (= var30 (str.++ var31 var32)))
(assert (= var32 (str.++ var33 var34)))
(assert (= var34 (str.++ var35 var36)))
(assert (= var36 (str.++ var37 var38)))
(assert (= var38 (str.++ var39 var40)))
(assert (= var40 (str.++ var41 var42)))
(assert (= var42 (str.++ var43 var44)))
(assert (= var44 (str.++ var45 var46)))
(assert (= var46 (str.++ var47 var48)))
(assert (= var48 (str.++ var49 var50)))
(assert (= var50 (str.++ var51 var52)))
(assert (= var52 (str.++ var53 var54)))
(assert (= var54 (str.++ var55 var56)))
(assert (= var56 (str.++ var57 var58)))
(assert (= var58 (str.++ var59 var60)))
(assert (= var0 "solution"))
(assert (= "(" (str.at var46 736)))
(assert (= "(" (str.at var38 708)))
(assert (= "y" (str.at var28 608)))
(assert (= "l" (str.at var44 420)))
(assert (= "(" (str.at var2 209)))
(assert (= "@" (str.at var31 178)))
(assert (= "J" (str.at var44 246)))
(assert (= "+" (str.at var27 812)))
(assert (= "M" (str.at var28 107)))
(assert (= "Z" (str.at var35 458)))
(assert (= "p" (str.at var50 752)))
(assert (= "&" (str.at var42 845)))
(assert (= "W" (str.at var53 377)))
(assert (= "{" (str.at var50 398)))
(assert (= "+" (str.at var23 556)))
(assert (= "P" (str.at var42 248)))
(assert (= "s" (str.at var4 473)))
(assert (= ";" (str.at var2 470)))
(assert (= "`" (str.at var19 411)))
(assert (= "X" (str.at var28 817)))
(assert (= "+" (str.at var40 762)))
(assert (= "/" (str.at var21 538)))
(assert (= "b" (str.at var56 722)))
(assert (= "y" (str.at var39 436)))
(assert (= "T" (str.at var5 259)))
(assert (= "}" (str.at var54 461)))
(assert (= "p" (str.at var51 250)))
(assert (= "." (str.at var30 259)))
(assert (= "#" (str.at var37 873)))
(assert (= "Q" (str.at var26 602)))
(assert (= "|" (str.at var44 806)))
(assert (= ">" (str.at var18 670)))
(assert (= "P" (str.at var5 242)))
(assert (= "J" (str.at var30 462)))
(assert (= "\\" (str.at var22 678)))
(assert (= "j" (str.at var47 630)))
(assert (= "i" (str.at var12 488)))
(assert (= "9" (str.at var18 841)))
(assert (= "`" (str.at var4 247)))
(assert (= "N" (str.at var49 494)))
(assert (= "1" (str.at var47 833)))
(assert (= "Q" (str.at var4 428)))
(assert (= "|" (str.at var25 181)))
(assert (= "c" (str.at var35 122)))
(assert (= "z" (str.at var24 683)))
(assert (= "I" (str.at var18 93)))
(assert (= "q" (str.at var28 779)))
(assert (= "?" (str.at var39 613)))
(assert (= "z" (str.at var23 230)))
(assert (= "4" (str.at var22 602)))
(assert (= "~" (str.at var35 184)))
(assert (= "?" (str.at var5 174)))
(assert (= "b" (str.at var37 658)))
(assert (= "E" (str.at var24 20)))
(assert (= "m" (str.at var33 375)))
(assert (= "e" (str.at var39 947)))
(assert (= "<" (str.at var37 41)))
(assert (= "#" (str.at var21 268)))
(assert (= "." (str.at var33 27)))
(assert (= "p" (str.at var5 906)))
(assert (= "Y" (str.at var10 131)))
(assert (= "5" (str.at var34 872)))
(assert (= "H" (str.at var4 285)))
(assert (= "4" (str.at var32 643)))
(assert (= "Y" (str.at var44 944)))
(assert (= "3" (str.at var44 796)))
(assert (= "+" (str.at var0 219)))
(assert (= ";" (str.at var53 25)))
(assert (= "4" (str.at var53 944)))
(assert (= "l" (str.at var50 708)))
(assert (= "-" (str.at var54 364)))
(assert (= "4" (str.at var27 180)))
(assert (= "<" (str.at var9 812)))
(assert (= "(" (str.at var44 201)))
(assert (= "g" (str.at var23 878)))
(assert (= ";" (str.at var18 751)))
(assert (= "S" (str.at var45 399)))
(assert (= "Z" (str.at var19 469)))
(assert (= "!" (str.at var18 981)))
(assert (= "4" (str.at var45 205)))
(assert (= "M" (str.at var16 532)))
(assert (= "|" (str.at var37 761)))
(assert (= "H" (str.at var25 212)))
(assert (= "I" (str.at var34 838)))
(assert (= "'" (str.at var28 898)))
(assert (= "e" (str.at var28 58)))
(assert (= "x" (str.at var8 631)))
(assert (= "%" (str.at var26 56)))
(assert (= "y" (str.at var23 852)))
(assert (= "2" (str.at var57 487)))
(assert (= "$" (str.at var24 667)))
(assert (= "q" (str.at var31 249)))
(assert (= "P" (str.at var59 271)))
(assert (= "S" (str.at var49 195)))
(assert (= "1" (str.at var32 135)))
(assert (= "A" (str.at var23 828)))
(assert (= "c" (str.at var28 883)))
(assert (= "k" (str.at var48 578)))
(assert (= ";" (str.at var17 206)))
(assert (= "o" (str.at var16 430)))
(assert (= "e" (str.at var20 903)))
(assert (= "s" (str.at var11 610)))
(assert (= "8" (str.at var27 347)))
(assert (= "?" (str.at var3 264)))
(assert (= "v" (str.at var60 494)))
(assert (= "5" (str.at var53 540)))
(assert (= "K" (str.at var54 972)))
(assert (= "F" (str.at var47 952)))
(assert (= "i" (str.at var25 715)))
(assert (= "{" (str.at var35 428)))
(assert (= "q" (str.at var46 889)))
(assert (= "$" (str.at var7 833)))
(assert (= "[" (str.at var10 926)))
(assert (= "Y" (str.at var37 278)))
(assert (= "5" (str.at var40 877)))
(assert (= "1" (str.at var43 374)))
(assert (= "v" (str.at var3 916)))
(assert (= "K" (str.at var44 767)))
(assert (= "R" (str.at var32 447)))
(assert (= "g" (str.at var26 277)))
(assert (= "b" (str.at var29 129)))
(assert (= "S" (str.at var40 883)))
(assert (= "$" (str.at var0 441)))
(assert (= "%" (str.at var26 894)))
(assert (= "B" (str.at var34 887)))
(assert (= "G" (str.at var49 564)))
(assert (= "N" (str.at var59 4)))
(assert (= "l" (str.at var56 329)))
(assert (= ":" (str.at var12 769)))
(assert (= "e" (str.at var54 677)))
(assert (= "m" (str.at var8 216)))
(assert (= "<" (str.at var1 431)))
(assert (= "l" (str.at var25 669)))
(assert (= ">" (str.at var38 630)))
(assert (= "~" (str.at var35 827)))
(assert (= "!" (str.at var20 927)))
(assert (= ")" (str.at var19 857)))
(assert (= "s" (str.at var3 203)))
(assert (= ")" (str.at var41 95)))
(assert (= "'" (str.at var53 368)))
(assert (= "o" (str.at var40 185)))
(assert (= "S" (str.at var14 353)))
(assert (= "*" (str.at var41 779)))
(assert (= "7" (str.at var60 88)))
(assert (= "u" (str.at var20 253)))
(assert (= "1" (str.at var42 472)))
(assert (= "Q" (str.at var3 904)))
(assert (= "~" (str.at var3 488)))
(assert (= "2" (str.at var60 295)))
(assert (= "*" (str.at var5 786)))
(assert (= "B" (str.at var43 251)))
(assert (= "." (str.at var31 781)))
(assert (= "@" (str.at var28 73)))
(assert (= "M" (str.at var35 979)))
(assert (= "y" (str.at var11 94)))
(assert (= "q" (str.at var10 240)))
(assert (= "j" (str.at var40 679)))
(assert (= "T" (str.at var29 405)))
(assert (= "y" (str.at var24 76)))
(assert (= "/" (str.at var56 342)))
(assert (= "P" (str.at var59 153)))
(assert (= "k" (str.at var24 95)))
(assert (= "u" (str.at var33 371)))
(assert (= "Z" (str.at var49 650)))
(assert (= "2" (str.at var5 335)))
(assert (= "L" (str.at var40 655)))
(assert (= "_" (str.at var51 668)))
(assert (= "T" (str.at var4 659)))
(assert (= "^" (str.at var21 46)))
(assert (= "|" (str.at var2 350)))
(assert (= "{" (str.at var33 722)))
(assert (= "=" (str.at var6 703)))
(assert (= "M" (str.at var1 657)))
(assert (= "`" (str.at var8 827)))
(assert (= "V" (str.at var42 787)))
(assert (= "%" (str.at var26 321)))
(assert (= "\\" (str.at var24 408)))
(assert (= "-" (str.at var44 378)))
(assert (= "," (str.at var40 719)))
(assert (= "A" (str.at var19 19)))
(assert (= "n" (str.at var37 160)))
(assert (= "F" (str.at var34 719)))
(assert (= "~" (str.at var56 139)))
(assert (= "P" (str.at var19 915)))
(assert (= "}" (str.at var43 48)))
(assert (= "#" (str.at var60 482)))
(assert (= "M" (str.at var8 496)))
(assert (= "2" (str.at var45 470)))
(assert (= "l" (str.at var7 867)))
(assert (= "r" (str.at var41 364)))
(assert (= "j" (str.at var25 577)))
(assert (= "_" (str.at var37 640)))
(assert (= "i" (str.at var59 977)))
(assert (= "B" (str.at var45 1)))
(assert (= "_" (str.at var51 880)))
(assert (= "^" (str.at var7 257)))
(assert (= "3" (str.at var16 978)))
(assert (= "[" (str.at var45 486)))
(assert (= "." (str.at var3 944)))
(assert (= "4" (str.at var50 199)))
(assert (= "|" (str.at var59 581)))
(assert (= "W" (str.at var4 498)))
(assert (= ":" (str.at var7 770)))
(assert (= "&" (str.at var53 628)))
(assert (= "H" (str.at var53 274)))
(assert (= "*" (str.at var29 546)))
(assert (= "g" (str.at var35 43)))
(assert (= """" (str.at var21 195)))
(assert (= "S" (str.at var14 345)))
(assert (= "p" (str.at var45 988)))
(assert (= "!" (str.at var32 900)))
(assert (= "g" (str.at var59 146)))
(assert (= "n" (str.at var34 749)))
(assert (= "+" (str.at var17 226)))
(assert (= "v" (str.at var3 346)))
(assert (= "=" (str.at var49 667)))
(assert (= ">" (str.at var52 786)))
(assert (= "m" (str.at var54 190)))
(assert (= "d" (str.at var48 886)))
(assert (= "3" (str.at var33 237)))
(assert (= "}" (str.at var32 770)))
(assert (= ";" (str.at var3 767)))
(assert (= "u" (str.at var45 950)))
(assert (= "y" (str.at var12 674)))
(assert (= "+" (str.at var52 108)))
(assert (= "," (str.at var53 379)))
(assert (= "6" (str.at var52 871)))
(assert (= "@" (str.at var58 994)))
(assert (= "+" (str.at var8 287)))
(assert (= "K" (str.at var20 129)))
(assert (= "p" (str.at var44 367)))
(assert (= "O" (str.at var22 240)))
(assert (= "R" (str.at var1 5)))
(assert (= "Z" (str.at var56 697)))
(assert (= "=" (str.at var3 68)))
(assert (= "=" (str.at var34 558)))
(assert (= "Q" (str.at var40 695)))
(assert (= "F" (str.at var0 653)))
(assert (= "_" (str.at var19 890)))
(assert (= "U" (str.at var52 257)))
(assert (= "O" (str.at var55 676)))
(assert (= "1" (str.at var10 777)))
(assert (= "C" (str.at var47 171)))
(assert (= "E" (str.at var51 773)))
(assert (= "X" (str.at var47 457)))
(assert (= "v" (str.at var4 984)))
(assert (= "J" (str.at var7 227)))
(assert (= "l" (str.at var19 480)))
(assert (= "o" (str.at var21 485)))
(assert (= "O" (str.at var59 628)))
(assert (= "I" (str.at var15 450)))
(assert (= "2" (str.at var31 655)))
(assert (= "5" (str.at var20 6)))
(assert (= "L" (str.at var22 729)))
(assert (= ":" (str.at var2 206)))
(assert (= "O" (str.at var25 382)))
(assert (= "n" (str.at var59 998)))
(assert (= "X" (str.at var41 638)))
(assert (= "B" (str.at var16 704)))
(assert (= "K" (str.at var57 283)))
(assert (= "<" (str.at var8 37)))
(assert (= "g" (str.at var55 524)))
(assert (= "h" (str.at var53 420)))
(assert (= "9" (str.at var24 17)))
(assert (= "R" (str.at var6 398)))
(assert (= "^" (str.at var24 116)))
(assert (= "=" (str.at var44 869)))
(assert (= "U" (str.at var45 159)))
(assert (= "v" (str.at var57 7)))
(assert (= "4" (str.at var42 479)))
(assert (= "Z" (str.at var11 136)))
(assert (= ";" (str.at var42 189)))
(assert (= "w" (str.at var50 876)))
(assert (= "A" (str.at var17 432)))
(assert (= "+" (str.at var0 155)))
(assert (= "s" (str.at var32 989)))
(assert (= "b" (str.at var19 640)))
(assert (= "5" (str.at var45 734)))
(assert (= "M" (str.at var0 128)))
(assert (= "]" (str.at var57 330)))
(assert (= "Q" (str.at var60 572)))
(assert (= "o" (str.at var11 973)))
(assert (= "," (str.at var14 670)))
(assert (= "F" (str.at var60 614)))
(assert (= "G" (str.at var57 783)))
(assert (= ")" (str.at var35 110)))
(assert (= "G" (str.at var36 24)))
(assert (= "3" (str.at var35 853)))
(assert (= "w" (str.at var37 92)))
(assert (= "<" (str.at var57 87)))
(assert (= "/" (str.at var15 768)))
(assert (= "<" (str.at var9 926)))
(assert (= "e" (str.at var13 335)))
(assert (= "A" (str.at var58 461)))
(assert (= "%" (str.at var30 599)))
(assert (= "F" (str.at var32 639)))
(assert (= "~" (str.at var16 37)))
(assert (= "W" (str.at var14 891)))
(assert (= "z" (str.at var20 389)))
(assert (= "#" (str.at var14 989)))
(assert (= "~" (str.at var44 192)))
(assert (= "\\" (str.at var32 140)))
(assert (= "'" (str.at var28 777)))
(assert (= "I" (str.at var50 301)))
(assert (= "4" (str.at var51 91)))
(assert (= "}" (str.at var29 965)))
(assert (= "b" (str.at var7 995)))
(assert (= "B" (str.at var40 208)))
(assert (= "U" (str.at var33 967)))
(assert (= "J" (str.at var34 435)))
(assert (= "*" (str.at var52 837)))
(assert (= "t" (str.at var5 733)))
(assert (= "w" (str.at var59 339)))
(assert (= "}" (str.at var2 466)))
(assert (= "." (str.at var14 730)))
(assert (= "X" (str.at var54 623)))
(assert (= "T" (str.at var9 819)))
(assert (= "Y" (str.at var6 522)))
(assert (= "N" (str.at var4 137)))
(assert (= "j" (str.at var31 26)))
(assert (= "p" (str.at var28 346)))
(assert (= "b" (str.at var31 200)))
(assert (= ">" (str.at var1 690)))
(assert (= "E" (str.at var28 910)))
(assert (= "J" (str.at var41 1000)))
(assert (= "W" (str.at var42 49)))
(assert (= "9" (str.at var42 925)))
(assert (= "+" (str.at var24 639)))
(assert (= "O" (str.at var13 729)))
(assert (= "O" (str.at var5 546)))
(assert (= "5" (str.at var16 558)))
(assert (= "d" (str.at var33 447)))
(assert (= "!" (str.at var3 616)))
(assert (= "m" (str.at var31 859)))
(assert (= "D" (str.at var57 661)))
(assert (= "n" (str.at var20 23)))
(assert (= "g" (str.at var24 107)))
(assert (= "U" (str.at var23 206)))
(assert (= "i" (str.at var60 875)))
(assert (= "r" (str.at var46 982)))
(assert (= "b" (str.at var58 622)))
(assert (= "8" (str.at var26 816)))
(assert (= "G" (str.at var44 11)))
(assert (= "k" (str.at var53 930)))
(assert (= "Q" (str.at var25 636)))
(assert (= "r" (str.at var50 599)))
(assert (= "!" (str.at var53 895)))
(assert (= "@" (str.at var14 4)))
(assert (= "x" (str.at var33 695)))
(assert (= "D" (str.at var35 780)))
(assert (= "c" (str.at var36 463)))
(assert (= "F" (str.at var40 977)))
(assert (= "i" (str.at var37 238)))
(assert (= "M" (str.at var6 6)))
(assert (= "C" (str.at var8 336)))
(assert (= "^" (str.at var1 320)))
(assert (= "s" (str.at var45 468)))
(assert (= ">" (str.at var20 526)))
(assert (= "P" (str.at var3 175)))
(assert (= ";" (str.at var7 124)))
(assert (= "f" (str.at var25 653)))
(assert (= "{" (str.at var8 60)))
(assert (= "s" (str.at var45 5)))
(assert (= "3" (str.at var31 409)))
(assert (= "Q" (str.at var50 374)))
(assert (= "y" (str.at var31 209)))
(assert (= "3" (str.at var27 560)))
(assert (= "," (str.at var35 464)))
(assert (= "m" (str.at var10 690)))
(assert (= "r" (str.at var35 187)))
(assert (= "\\" (str.at var24 901)))
(assert (= ")" (str.at var28 637)))
(assert (= "^" (str.at var36 837)))
(assert (= "A" (str.at var20 560)))
(assert (= "V" (str.at var12 790)))
(assert (= "#" (str.at var55 2)))
(assert (= "X" (str.at var28 730)))
(assert (= "m" (str.at var30 849)))
(assert (= "G" (str.at var6 153)))
(assert (= "?" (str.at var21 534)))
(assert (= "P" (str.at var9 230)))
(assert (= "k" (str.at var25 472)))
(assert (= "K" (str.at var14 76)))
(assert (= "L" (str.at var46 629)))
(assert (= "-" (str.at var22 996)))
(assert (= "q" (str.at var48 689)))
(assert (= "8" (str.at var34 599)))
(assert (= "?" (str.at var12 464)))
(assert (= ")" (str.at var50 119)))
(assert (= "i" (str.at var14 33)))
(assert (= "/" (str.at var52 477)))
(assert (= "[" (str.at var27 52)))
(assert (= "(" (str.at var22 365)))
(assert (= "E" (str.at var42 985)))
(assert (= "n" (str.at var1 279)))
(assert (= "-" (str.at var24 195)))
(assert (= "2" (str.at var16 152)))
(assert (= "9" (str.at var38 850)))
(assert (= ";" (str.at var39 822)))
(assert (= "h" (str.at var41 801)))
(assert (= "y" (str.at var36 84)))
(assert (= "2" (str.at var54 167)))
(assert (= "r" (str.at var34 727)))
(assert (= "&" (str.at var13 998)))
(assert (= "0" (str.at var14 552)))
(assert (= "V" (str.at var18 565)))
(assert (= "V" (str.at var52 154)))
(assert (= "H" (str.at var43 35)))
(assert (= ";" (str.at var46 765)))
(assert (= "c" (str.at var59 718)))
(assert (= "p" (str.at var3 562)))
(assert (= "A" (str.at var38 8)))
(assert (= "{" (str.at var14 75)))
(assert (= "t" (str.at var50 812)))
(assert (= "," (str.at var34 339)))
(assert (= "4" (str.at var56 916)))
(assert (= "f" (str.at var9 489)))
(assert (= "s" (str.at var12 724)))
(assert (= "1" (str.at var15 617)))
(assert (= "H" (str.at var26 645)))
(assert (= "Z" (str.at var37 933)))
(assert (= "+" (str.at var36 171)))
(assert (= "_" (str.at var35 627)))
(assert (= "O" (str.at var11 425)))
(assert (= "Y" (str.at var27 357)))
(assert (= "Z" (str.at var1 934)))
(assert (= "u" (str.at var46 771)))
(assert (= "7" (str.at var31 363)))
(assert (= "l" (str.at var57 105)))
(assert (= "!" (str.at var37 916)))
(assert (= ">" (str.at var22 953)))
(assert (= "5" (str.at var33 968)))
(assert (= "T" (str.at var48 734)))
(assert (= "v" (str.at var16 575)))
(assert (= "A" (str.at var38 276)))
(assert (= ">" (str.at var32 721)))
(assert (= "," (str.at var51 464)))
(assert (= "W" (str.at var13 403)))
(assert (= "1" (str.at var9 63)))
(assert (= "a" (str.at var48 591)))
(assert (= "X" (str.at var7 300)))
(assert (= "@" (str.at var50 982)))
(assert (= "L" (str.at var13 426)))
(assert (= "O" (str.at var44 784)))
(assert (= "U" (str.at var14 919)))
(assert (= "c" (str.at var46 920)))
(assert (= "@" (str.at var11 942)))
(assert (= "?" (str.at var22 82)))
(assert (= "B" (str.at var48 953)))
(assert (= ")" (str.at var14 405)))
(assert (= "9" (str.at var7 766)))
(assert (= "b" (str.at var0 37)))
(assert (= "\\" (str.at var48 335)))
(assert (= "8" (str.at var44 718)))
(assert (= "J" (str.at var39 557)))
(assert (= "h" (str.at var38 584)))
(assert (= "O" (str.at var18 582)))
(assert (= "@" (str.at var35 131)))
(assert (= "u" (str.at var27 213)))
(assert (= "a" (str.at var20 203)))
(assert (= "n" (str.at var48 728)))
(assert (= "5" (str.at var25 966)))
(assert (= "5" (str.at var6 823)))
(assert (= "f" (str.at var24 444)))
(assert (= "Y" (str.at var9 963)))
(assert (= "}" (str.at var43 207)))
(assert (= "!" (str.at var21 411)))
(assert (= ";" (str.at var6 910)))
(assert (= "O" (str.at var47 88)))
(assert (= ":" (str.at var5 526)))
(assert (= "@" (str.at var22 322)))
(assert (= "N" (str.at var51 365)))
(assert (= "{" (str.at var46 917)))
(assert (= "@" (str.at var39 635)))
(assert (= """" (str.at var24 693)))
(assert (= "J" (str.at var50 42)))
(assert (= "o" (str.at var6 867)))
(assert (= "B" (str.at var10 197)))
(assert (= ")" (str.at var37 31)))
(assert (= "$" (str.at var10 883)))
(assert (= "B" (str.at var44 624)))
(assert (= "h" (str.at var13 468)))
(assert (= "3" (str.at var50 73)))
(assert (= "9" (str.at var51 514)))
(assert (= "{" (str.at var34 313)))
(assert (= "v" (str.at var37 350)))
(assert (= "B" (str.at var35 775)))
(assert (= "'" (str.at var15 685)))
(assert (= "6" (str.at var36 291)))
(assert (= "~" (str.at var25 449)))
(assert (= "7" (str.at var26 996)))
(assert (= "*" (str.at var18 417)))
(assert (= "_" (str.at var51 300)))
(assert (= "`" (str.at var40 940)))
(assert (= "1" (str.at var43 647)))
(assert (= "y" (str.at var6 286)))
(assert (= "u" (str.at var2 661)))
(assert (= "," (str.at var43 496)))
(assert (= "B" (str.at var55 522)))
(assert (= "j" (str.at var6 5)))
(assert (= "\\" (str.at var7 808)))
(assert (= "." (str.at var12 575)))
(assert (= "*" (str.at var37 125)))
(assert (= "V" (str.at var51 733)))
(assert (= "Q" (str.at var37 675)))
(assert (= "#" (str.at var56 977)))
(assert (= "," (str.at var31 601)))
(assert (= "Y" (str.at var60 936)))
(assert (= "<" (str.at var10 97)))
(assert (= "R" (str.at var1 499)))
(assert (= "}" (str.at var1 840)))
(assert (= "q" (str.at var47 72)))
(assert (= "&" (str.at var29 260)))
(assert (= "Y" (str.at var50 8)))
(assert (= "Q" (str.at var46 1000)))
(assert (= "g" (str.at var28 240)))
(assert (= """" (str.at var43 206)))
(assert (= "X" (str.at var14 106)))
(assert (= "b" (str.at var43 139)))
(assert (= "H" (str.at var41 925)))
(assert (= "6" (str.at var45 61)))
(assert (= "R" (str.at var12 343)))
(assert (= "=" (str.at var45 637)))
(assert (= "S" (str.at var22 113)))
(assert (= "@" (str.at var57 111)))
(assert (= "^" (str.at var1 699)))
(assert (= "9" (str.at var56 827)))
(assert (= ">" (str.at var12 298)))
(assert (= "X" (str.at var55 646)))
(assert (= "(" (str.at var44 208)))
(assert (= "l" (str.at var7 103)))
(assert (= "r" (str.at var9 416)))
(assert (= "D" (str.at var33 775)))
(assert (= "R" (str.at var23 139)))
(assert (= "F" (str.at var12 277)))
(assert (= "y" (str.at var44 967)))
(assert (= ">" (str.at var0 292)))
(assert (= "\\" (str.at var17 437)))
(assert (= "$" (str.at var40 289)))
(assert (= "[" (str.at var47 194)))
(assert (= "|" (str.at var44 875)))
(assert (= "U" (str.at var22 137)))
(assert (= "P" (str.at var31 19)))
(assert (= "z" (str.at var30 32)))
(assert (= ":" (str.at var11 657)))
(assert (= "5" (str.at var32 696)))
(assert (= "]" (str.at var35 793)))
(assert (= "j" (str.at var34 956)))
(assert (= "U" (str.at var8 394)))
(assert (= "*" (str.at var53 660)))
(assert (= "K" (str.at var59 224)))
(assert (= "m" (str.at var32 582)))
(assert (= ">" (str.at var1 832)))
(assert (= "~" (str.at var4 673)))
(assert (= "(" (str.at var12 364)))
(assert (= "j" (str.at var42 982)))
(assert (= "Y" (str.at var5 653)))
(assert (= "b" (str.at var42 556)))
(assert (= "H" (str.at var8 557)))
(assert (= "Z" (str.at var24 500)))
(assert (= "t" (str.at var38 84)))
(assert (= "k" (str.at var56 286)))
(assert (= "C" (str.at var56 958)))
(assert (= "k" (str.at var3 793)))
(assert (= "L" (str.at var49 489)))
(assert (= "7" (str.at var43 659)))
(assert (= "u" (str.at var23 611)))
(assert (= "1" (str.at var59 875)))
(assert (= "Z" (str.at var55 397)))
(assert (= "*" (str.at var0 710)))
(assert (= "E" (str.at var11 993)))
(assert (= "<" (str.at var5 272)))
(assert (= "w" (str.at var10 906)))
(assert (= "/" (str.at var28 846)))
(assert (= "*" (str.at var37 599)))
(assert (= "8" (str.at var42 647)))
(assert (= ":" (str.at var53 878)))
(assert (= "B" (str.at var0 639)))
(assert (= "}" (str.at var38 743)))
(assert (= "`" (str.at var22 694)))
(assert (= "!" (str.at var43 848)))
(assert (= "D" (str.at var50 39)))
(assert (= "2" (str.at var36 348)))
(assert (= "{" (str.at var14 275)))
(assert (= "-" (str.at var35 213)))
(assert (= "8" (str.at var52 500)))
(assert (= "E" (str.at var51 727)))
(assert (= "!" (str.at var58 578)))
(assert (= ";" (str.at var1 60)))
(assert (= "$" (str.at var59 804)))
(assert (= "L" (str.at var8 519)))
(assert (= "h" (str.at var39 453)))
(assert (= "O" (str.at var22 68)))
(assert (= "1" (str.at var59 106)))
(assert (= "V" (str.at var20 633)))
(assert (= "l" (str.at var45 161)))
(assert (= "?" (str.at var5 191)))
(assert (= "e" (str.at var5 520)))
(assert (= "$" (str.at var16 606)))
(assert (= "w" (str.at var58 201)))
(assert (= "B" (str.at var56 714)))
(assert (= "c" (str.at var35 32)))
(assert (= "s" (str.at var26 619)))
(assert (= "|" (str.at var53 555)))
(assert (= "r" (str.at var7 731)))
(assert (= "L" (str.at var37 945)))
(assert (= ">" (str.at var60 480)))
(assert (= "[" (str.at var7 359)))
(assert (= "a" (str.at var27 748)))
(assert (= "." (str.at var41 487)))
(assert (= "_" (str.at var13 754)))
(assert (= "~" (str.at var39 508)))
(assert (= "X" (str.at var55 903)))
(assert (= "i" (str.at var35 177)))
(assert (= "g" (str.at var34 649)))
(assert (= "3" (str.at var29 969)))
(assert (= "W" (str.at var28 5)))
(assert (= ">" (str.at var34 334)))
(assert (= "e" (str.at var6 427)))
(assert (= "d" (str.at var55 678)))
(assert (= "t" (str.at var46 412)))
(assert (= "i" (str.at var12 331)))
(assert (= "u" (str.at var44 755)))
(assert (= ")" (str.at var2 733)))
(assert (= "6" (str.at var34 953)))
(assert (= "2" (str.at var4 66)))
(assert (= "j" (str.at var47 757)))
(assert (= "E" (str.at var36 453)))
(assert (= "'" (str.at var24 283)))
(assert (= "P" (str.at var18 769)))
(assert (= "5" (str.at var10 295)))
(assert (= "N" (str.at var1 943)))
(assert (= "F" (str.at var45 564)))
(assert (= "e" (str.at var59 612)))
(assert (= "K" (str.at var24 417)))
(assert (= "C" (str.at var45 662)))
(assert (= "@" (str.at var22 177)))
(assert (= "a" (str.at var54 79)))
(assert (= "8" (str.at var51 580)))
(assert (= "#" (str.at var25 860)))
(assert (= "M" (str.at var26 291)))
(assert (= "H" (str.at var0 191)))
(assert (= "V" (str.at var46 370)))
(assert (= ">" (str.at var60 825)))
(assert (= "Q" (str.at var60 698)))
(assert (= "6" (str.at var12 222)))
(assert (= "A" (str.at var1 710)))
(assert (= "H" (str.at var49 31)))
(assert (= "v" (str.at var53 956)))
(assert (= "N" (str.at var43 824)))
(assert (= "l" (str.at var18 814)))
(assert (= "=" (str.at var23 237)))
(assert (= "~" (str.at var40 481)))
(assert (= "D" (str.at var1 995)))
(assert (= "Q" (str.at var30 577)))
(assert (= "&" (str.at var38 232)))
(assert (= "P" (str.at var5 812)))
(assert (= "a" (str.at var22 842)))
(assert (= "5" (str.at var41 281)))
(assert (= "U" (str.at var3 220)))
(assert (= "v" (str.at var2 516)))
(assert (= "~" (str.at var58 875)))
(assert (= "V" (str.at var45 837)))
(assert (= "!" (str.at var29 67)))
(assert (= "n" (str.at var57 926)))
(assert (= "}" (str.at var36 272)))
(assert (= "%" (str.at var38 247)))
(assert (= "7" (str.at var9 172)))
(assert (= "U" (str.at var48 200)))
(assert (= "y" (str.at var29 876)))
(assert (= "T" (str.at var55 948)))
(assert (= "j" (str.at var51 510)))
(assert (= "n" (str.at var51 60)))
(assert (= "F" (str.at var46 866)))
(assert (= "c" (str.at var16 347)))
(assert (= "}" (str.at var22 498)))
(assert (= ":" (str.at var20 861)))
(assert (= "H" (str.at var10 15)))
(assert (= "t" (str.at var6 975)))
(assert (= "l" (str.at var51 844)))
(assert (= "H" (str.at var32 234)))
(assert (= "5" (str.at var9 980)))
(assert (= "f" (str.at var58 223)))
(assert (= "R" (str.at var44 98)))
(assert (= "h" (str.at var33 895)))
(assert (= "Z" (str.at var28 484)))
(assert (= "X" (str.at var30 444)))
(assert (= "B" (str.at var39 400)))
(assert (= ";" (str.at var24 490)))
(assert (= "^" (str.at var24 335)))
(assert (= ")" (str.at var24 635)))
(assert (= "S" (str.at var8 297)))
(assert (= "Z" (str.at var16 791)))
(assert (= "j" (str.at var42 323)))
(assert (= "[" (str.at var19 305)))
(assert (= "n" (str.at var53 742)))
(assert (= "=" (str.at var23 490)))
(assert (= "&" (str.at var37 340)))
(assert (= "#" (str.at var37 587)))
(assert (= "c" (str.at var2 666)))
(assert (= "R" (str.at var8 405)))
(assert (= "e" (str.at var6 534)))
(assert (= "R" (str.at var10 853)))
(assert (= "a" (str.at var11 37)))
(assert (= "|" (str.at var57 404)))
(assert (= "N" (str.at var44 695)))
(assert (= "w" (str.at var19 993)))
(assert (= "i" (str.at var37 354)))
(assert (= "2" (str.at var11 216)))
(assert (= "f" (str.at var25 665)))
(assert (= "j" (str.at var12 563)))
(assert (= "<" (str.at var36 449)))
(assert (= "2" (str.at var3 56)))
(assert (= "+" (str.at var6 731)))
(assert (= ";" (str.at var26 469)))
(assert (= "5" (str.at var20 817)))
(assert (= "." (str.at var5 14)))
(assert (= "]" (str.at var3 761)))
(assert (= "U" (str.at var11 210)))
(assert (= "g" (str.at var11 422)))
(assert (= "6" (str.at var7 864)))
(assert (= "D" (str.at var55 763)))
(assert (= "@" (str.at var39 138)))
(assert (= "'" (str.at var54 504)))
(assert (= "=" (str.at var32 110)))
(assert (= "D" (str.at var5 740)))
(assert (= "g" (str.at var22 488)))
(assert (= "J" (str.at var56 198)))
(assert (= "S" (str.at var29 688)))
(assert (= "R" (str.at var18 356)))
(assert (= ":" (str.at var60 459)))
(assert (= "j" (str.at var41 849)))
(assert (= "a" (str.at var39 961)))
(assert (= "Z" (str.at var49 866)))
(assert (= "F" (str.at var23 327)))
(assert (= ")" (str.at var32 376)))
(assert (= "E" (str.at var3 836)))
(assert (= "_" (str.at var45 747)))
(assert (= "h" (str.at var10 602)))
(assert (= "4" (str.at var31 616)))
(assert (= "0" (str.at var14 423)))
(assert (= "0" (str.at var16 157)))
(assert (= "." (str.at var54 780)))
(assert (= "=" (str.at var5 947)))
(assert (= "5" (str.at var23 560)))
(assert (= "/" (str.at var48 688)))
(assert (= ">" (str.at var35 935)))
(assert (= "O" (str.at var20 675)))
(assert (= "U" (str.at var6 456)))
(assert (= "s" (str.at var30 272)))
(assert (= "%" (str.at var3 554)))
(assert (= "e" (str.at var34 777)))
(assert (= "O" (str.at var15 992)))
(assert (= "o" (str.at var17 881)))
(assert (= "X" (str.at var14 734)))
(assert (= "l" (str.at var32 716)))
(assert (= "f" (str.at var13 158)))
(assert (= "6" (str.at var16 661)))
(assert (= ">" (str.at var24 811)))
(assert (= "G" (str.at var40 206)))
(assert (= "-" (str.at var45 117)))
(assert (= "r" (str.at var49 850)))
(assert (= "-" (str.at var4 857)))
(assert (= "5" (str.at var0 251)))
(assert (= "`" (str.at var16 879)))
(assert (= "I" (str.at var57 418)))
(assert (= "z" (str.at var7 921)))
(assert (= "V" (str.at var30 660)))
(assert (= "d" (str.at var38 408)))
(assert (= "}" (str.at var9 930)))
(assert (= "#" (str.at var3 551)))
(assert (= "{" (str.at var43 890)))
(assert (= "/" (str.at var23 850)))
(assert (= "t" (str.at var55 442)))
(assert (= "I" (str.at var17 212)))
(assert (= "," (str.at var59 955)))
(assert (= "m" (str.at var35 594)))
(assert (= "q" (str.at var31 531)))
(assert (= "3" (str.at var43 856)))
(assert (= "M" (str.at var56 525)))
(assert (= "5" (str.at var36 707)))
(assert (= "`" (str.at var31 2)))
(assert (= "6" (str.at var52 410)))
(assert (= "b" (str.at var54 861)))
(assert (= "J" (str.at var13 564)))
(assert (= "z" (str.at var15 402)))
(assert (= "]" (str.at var56 814)))
(assert (= "k" (str.at var18 402)))
(assert (= ":" (str.at var47 926)))
(assert (= "!" (str.at var9 626)))
(assert (= "1" (str.at var22 24)))
(assert (= "U" (str.at var49 418)))
(assert (= "5" (str.at var14 470)))
(assert (= "y" (str.at var28 464)))
(assert (= "g" (str.at var32 950)))
(assert (= "P" (str.at var26 715)))
(assert (= "(" (str.at var32 273)))
(assert (= "^" (str.at var35 212)))
(assert (= "}" (str.at var10 31)))
(assert (= ";" (str.at var27 678)))
(assert (= "4" (str.at var35 759)))
(check-sat)
(get-model)